64 176
61 253
32 123
31 121
62 224
18 285
17 301
33 133
45 225
43 349
59 238
48 131
36 122
3 113
41 120
58 110
29 351
53 132
8 287
4 124
10 284
42 333
20 108
54 174
50 175
37 278
51 230
24 137
2 102
19 223
38 290
11 268
6 168
23 129
39 308
40 142
25 166
56 130
12 316
28 105
27 100
30 367
52 119
5 135
44 169
26 335
21 116
7 271
35 104
49 136
15 265
13 297
57 138
22 273
55 115
34 269
60 263
16 317
9 303
46 289
1 245
63 134
14 313